
Gurobi 9.1.2 (win64) logging started Tue Dec  7 09:16:09 2021

Gurobi Optimizer version 9.1.2 build v9.1.2rc0 (win64)
Thread count: 8 physical cores, 8 logical processors, using up to 8 threads
Optimize a model with 1 rows, 149 columns and 148 nonzeros
Model fingerprint: 0x68cabbf2
Variable types: 1 continuous, 148 integer (148 binary)
Coefficient statistics:
  Matrix range     [1e+00, 1e+01]
  Objective range  [1e+00, 1e+00]
  Bounds range     [5e+01, 5e+01]
  RHS range        [1e+01, 1e+01]
Presolve time: 0.00s
Presolved: 1 rows, 149 columns, 148 nonzeros
Variable types: 1 continuous, 148 integer (148 binary)

Root simplex log...

Iteration    Objective       Primal Inf.    Dual Inf.      Time
       0   -4.5206228e+01   3.310694e-01   0.000000e+00     16s
       5   -3.8319284e+01   0.000000e+00   0.000000e+00     16s

Root relaxation: objective -3.831928e+01, 5 iterations, 0.00 seconds

    Nodes    |    Current Node    |     Objective Bounds      |     Work
 Expl Unexpl |  Obj  Depth IntInf | Incumbent    BestBd   Gap | It/Node Time

     0     0  -38.31928    0    1          -  -38.31928      -     -   16s
H    0     0                       0.8253210  -38.31928  4743%     -   16s
H    0     0                       0.8207562  -38.31928  4769%     -   17s
H    0     0                       0.7968384  -38.31928  4909%     -   17s
     0     0  -20.39676    0    4    0.79684  -20.39676  2660%     -   17s
H    0     0                       0.7968384  -20.39676  2660%     -   18s
     0     0  -15.36658    0    8    0.79684  -15.36658  2028%     -   18s
     0     0  -14.70226    0    8    0.79684  -14.70226  1945%     -   18s
     0     0  -14.60855    0    7    0.79684  -14.60855  1933%     -   18s
     0     0  -14.19964    0    8    0.79684  -14.19964  1882%     -   18s
     0     0  -14.19964    0    8    0.79684  -14.19964  1882%     -   20s
     0     0  -13.93565    0    9    0.79684  -13.93565  1849%     -   20s
     0     0  -13.91753    0   10    0.79684  -13.91753  1847%     -   20s
     0     0  -13.77576    0    9    0.79684  -13.77576  1829%     -   20s
     0     0  -13.76241    0    9    0.79684  -13.76241  1827%     -   20s
     0     0  -13.58856    0   10    0.79684  -13.58856  1805%     -   20s
     0     0  -13.58856    0    6    0.79684  -13.58856  1805%     -   20s
     0     0  -13.03729    0    9    0.79684  -13.03729  1736%     -   20s
H    0     0                       0.7967820  -13.03729  1736%     -   21s
     0     0  -12.99834    0    9    0.79678  -12.99834  1731%     -   21s
     0     0  -12.97505    0    9    0.79678  -12.97505  1728%     -   21s
     0     0  -12.81635    0    9    0.79678  -12.81635  1709%     -   21s
     0     0  -12.81438    0    9    0.79678  -12.81438  1708%     -   21s
     0     0  -12.67570    0   10    0.79678  -12.67570  1691%     -   21s
     0     0  -12.63529    0   10    0.79678  -12.63529  1686%     -   22s
     0     0  -12.60322    0   10    0.79678  -12.60322  1682%     -   22s
     0     0  -12.58861    0    9    0.79678  -12.58861  1680%     -   22s
     0     0  -12.57645    0   10    0.79678  -12.57645  1678%     -   22s
     0     0  -12.57567    0   10    0.79678  -12.57567  1678%     -   22s
     0     0  -12.50594    0    9    0.79678  -12.50594  1670%     -   22s
     0     0  -12.46272    0    9    0.79678  -12.46272  1664%     -   22s
     0     0  -12.45098    0   10    0.79678  -12.45098  1663%     -   22s
     0     0  -12.44766    0   10    0.79678  -12.44766  1662%     -   22s
     0     0  -12.44532    0   10    0.79678  -12.44532  1662%     -   22s
     0     0  -12.41765    0    9    0.79678  -12.41765  1658%     -   22s
     0     0  -12.41755    0   10    0.79678  -12.41755  1658%     -   22s
     0     0  -12.41385    0   10    0.79678  -12.41385  1658%     -   22s
     0     2  -12.41385    0   10    0.79678  -12.41385  1658%     -   22s
H  376   113                       0.7967820   -6.17309   875%   4.0   24s

Cutting planes:
  Gomory: 3
  MIR: 7
  Lazy constraints: 30

Explored 648 nodes (3186 simplex iterations) in 25.26 seconds
Thread count was 8 (of 8 available processors)

Solution count 6: 0.796782 0.796782 0.796838 ... 0.825321

Optimal solution found (tolerance 1.00e-04)
Best objective 7.967820323022e-01, best bound 7.967820323022e-01, gap 0.0000%

User-callback calls 1643, time in user-callback 28.78 sec
